root_relax = 416.53
QCR_time = 12.5864
opt = true
obj_val = 416.0
solved_time = 0.0389
explored_nodes = 1000
to value "./res/Gurobi/QCR_QP/bcc68145.txt"
Set parameter Presolve to value 0
Set parameter AggFill to value -1
Set parameter Aggregate to value 0
Set parameter Heuristics to value 0
Set parameter LPWarmStart to value 0
Set parameter NLPHeur to value 0
Set parameter NoRelHeurTime to value 0
Set parameter PreCrush to value 0
Set parameter PreDepRow to value 0
Set parameter PreDual to value 0
Set parameter PrePasses to value -1
Set parameter RINS to value 0
Set parameter Symmetry to value 0
Set parameter PreQLinearize to value 0
Set parameter NonConvex to value 0

Gurobi 12.0.0 (linux64) logging started Wed Feb  5 18:28:18 2025

Set parameter LogFile to value "./res/Gurobi/QCR_QP/bcc68145.txt"
Set parameter PreCrush to value 0
Set parameter PrePasses to value -1
Set parameter AggFill to value -1
Set parameter NoRelHeurTime to value 0
Set parameter NLPHeur to value 0
Set parameter NonConvex to value 0
Set parameter LPWarmStart to value 0
Set parameter PreDepRow to value 0
Set parameter Symmetry to value 0
Set parameter Presolve to value 0
Gurobi Optimizer version 12.0.0 build v12.0.0rc1 (linux64 - "Debian GNU/Linux 12 (bookworm)")

CPU model: Intel(R) Xeon(R) CPU E5-2650 v3 @ 2.30GHz, instruction set [SSE2|AVX|AVX2]
Thread count: 20 physical cores, 40 logical processors, using up to 20 threads

Non-default parameters:
TimeLimit  1800
LPWarmStart  0
Heuristics  0
RINS  0
NLPHeur  0
Symmetry  0
Aggregate  0
PreDual  0
NonConvex  0
PreDepRow  0
PreQLinearize  0
Presolve  0

Optimize a model with 0 rows, 63 columns and 0 nonzeros
Model fingerprint: 0x089f3753
Model has 714 quadratic objective terms
Variable types: 0 continuous, 63 integer (63 binary)
Coefficient statistics:
  Matrix range     [0e+00, 0e+00]
  Objective range  [4e+00, 9e+01]
  QObjective range [3e+00, 6e+01]
  Bounds range     [0e+00, 0e+00]
  RHS range        [0e+00, 0e+00]
Variable types: 0 continuous, 63 integer (63 binary)

Root relaxation: objective -4.165313e+02, 105 iterations, 0.00 seconds (0.00 work units)

    Nodes    |    Current Node    |     Objective Bounds      |     Work
 Expl Unexpl |  Obj  Depth IntInf | Incumbent    BestBd   Gap | It/Node Time

     0     0 -416.53128    0   63          - -416.53128      -     -    0s
     0     0 -416.53113    0   63          - -416.53113      -     -    0s
     0     2 -416.53113    0   63          - -416.53113      -     -    0s
*  352   450              22    -416.0000000 -416.34417  0.08%   3.2    0s

Explored 1000 nodes (1713 simplex iterations) in 0.04 seconds (0.01 work units)
Thread count was 20 (of 40 available processors)

Solution count 1: -416 

Optimal solution found (tolerance 1.00e-04)
Best objective -4.160000000003e+02, best bound -4.160039203197e+02, gap 0.0009%

User-callback calls 2076, time in user-callback 0.00 sec
